decision_x1=[0,4];
decision_x2=[0,4];
decision_x3=[0,4];
decision_x4=[0,4];
decision_x5=[0,4];
decision_x6=[0,4];
decision_x7=[0,4];
decision_x8=[0,4];
decision_x9=[0,4];
decision_x10=[0,4];
random_y1=[0,4];
random_y2=[0,4];
random_y3=[0,4];
random_y4=[0,4];
random_y5=[0,4];
random_y6=[0,4];
random_y7=[0,4];
random_y8=[0,4];
random_y9=[0,4];
random_y10=[0,4];
constraint_x2_x1=[
0,0,59|
0,1,58|
0,2,54|
0,3,83|
0,4,83|
1,0,90|
1,1,51|
1,2,67|
1,3,16|
1,4,85|
2,0,54|
2,1,7.7|
2,2,67|
2,3,62|
2,4,46|
3,0,93|
3,1,80|
3,2,70|
3,3,82|
3,4,41|
4,0,46|
4,1,31|
4,2,13|
4,3,92|
4,4,59|
];
constraint_x4_x2=[
0,0,96|
0,1,53|
0,2,49|
0,3,54|
0,4,45|
1,0,6.3|
1,1,85|
1,2,50|
1,3,46|
1,4,93|
2,0,57|
2,1,19|
2,2,94|
2,3,40|
2,4,52|
3,0,48|
3,1,48|
3,2,90|
3,3,18|
3,4,36|
4,0,23|
4,1,22|
4,2,57|
4,3,1e+02|
4,4,88|
];
constraint_x4_x3=[
0,0,56|
0,1,46|
0,2,23|
0,3,7.6|
0,4,31|
1,0,78|
1,1,2.7|
1,2,52|
1,3,17|
1,4,16|
2,0,45|
2,1,17|
2,2,43|
2,3,16|
2,4,62|
3,0,27|
3,1,48|
3,2,24|
3,3,9.7|
3,4,34|
4,0,47|
4,1,90|
4,2,53|
4,3,85|
4,4,2.6|
];
constraint_x5_x2=[
0,0,79|
0,1,91|
0,2,50|
0,3,30|
0,4,64|
1,0,72|
1,1,20|
1,2,79|
1,3,38|
1,4,24|
2,0,43|
2,1,85|
2,2,11|
2,3,13|
2,4,55|
3,0,92|
3,1,46|
3,2,24|
3,3,99|
3,4,80|
4,0,21|
4,1,54|
4,2,76|
4,3,77|
4,4,46|
];
constraint_x5_x4=[
0,0,93|
0,1,94|
0,2,98|
0,3,66|
0,4,80|
1,0,60|
1,1,50|
1,2,58|
1,3,3.8|
1,4,97|
2,0,96|
2,1,92|
2,2,23|
2,3,95|
2,4,87|
3,0,19|
3,1,6.4|
3,2,99|
3,3,13|
3,4,26|
4,0,90|
4,1,56|
4,2,32|
4,3,53|
4,4,55|
];
constraint_x6_x2=[
0,0,95|
0,1,14|
0,2,71|
0,3,85|
0,4,53|
1,0,39|
1,1,58|
1,2,16|
1,3,57|
1,4,83|
2,0,96|
2,1,54|
2,2,54|
2,3,15|
2,4,5.7|
3,0,98|
3,1,12|
3,2,72|
3,3,69|
3,4,89|
4,0,73|
4,1,77|
4,2,70|
4,3,2.1|
4,4,30|
];
constraint_x6_x5=[
0,0,48|
0,1,30|
0,2,23|
0,3,8.4|
0,4,64|
1,0,68|
1,1,65|
1,2,1e+02|
1,3,88|
1,4,95|
2,0,72|
2,1,28|
2,2,98|
2,3,88|
2,4,31|
3,0,94|
3,1,54|
3,2,59|
3,3,91|
3,4,20|
4,0,83|
4,1,79|
4,2,41|
4,3,78|
4,4,75|
];
constraint_x7_x1=[
0,0,30|
0,1,91|
0,2,37|
0,3,96|
0,4,44|
1,0,95|
1,1,72|
1,2,44|
1,3,16|
1,4,47|
2,0,17|
2,1,8.7|
2,2,38|
2,3,68|
2,4,63|
3,0,27|
3,1,1.9|
3,2,0.54|
3,3,52|
3,4,40|
4,0,67|
4,1,20|
4,2,66|
4,3,39|
4,4,17|
];
constraint_x7_x4=[
0,0,4.8|
0,1,35|
0,2,39|
0,3,90|
0,4,74|
1,0,98|
1,1,11|
1,2,34|
1,3,2.5|
1,4,47|
2,0,46|
2,1,84|
2,2,39|
2,3,34|
2,4,6.8|
3,0,65|
3,1,20|
3,2,79|
3,3,49|
3,4,82|
4,0,30|
4,1,17|
4,2,65|
4,3,48|
4,4,61|
];
constraint_x7_x6=[
0,0,4.9|
0,1,93|
0,2,44|
0,3,19|
0,4,60|
1,0,46|
1,1,90|
1,2,50|
1,3,71|
1,4,35|
2,0,71|
2,1,30|
2,2,73|
2,3,67|
2,4,68|
3,0,16|
3,1,92|
3,2,58|
3,3,19|
3,4,72|
4,0,64|
4,1,90|
4,2,63|
4,3,25|
4,4,45|
];
constraint_x8_x1=[
0,0,29|
0,1,87|
0,2,77|
0,3,31|
0,4,62|
1,0,9.3|
1,1,15|
1,2,49|
1,3,53|
1,4,43|
2,0,21|
2,1,88|
2,2,5.3|
2,3,97|
2,4,47|
3,0,92|
3,1,89|
3,2,67|
3,3,68|
3,4,68|
4,0,14|
4,1,8.3|
4,2,90|
4,3,11|
4,4,35|
];
constraint_x8_x4=[
0,0,53|
0,1,21|
0,2,75|
0,3,25|
0,4,90|
1,0,71|
1,1,49|
1,2,51|
1,3,64|
1,4,84|
2,0,27|
2,1,94|
2,2,70|
2,3,20|
2,4,95|
3,0,39|
3,1,30|
3,2,39|
3,3,25|
3,4,95|
4,0,87|
4,1,47|
4,2,49|
4,3,44|
4,4,76|
];
constraint_x8_x5=[
0,0,1.2|
0,1,53|
0,2,51|
0,3,99|
0,4,53|
1,0,58|
1,1,61|
1,2,0.51|
1,3,40|
1,4,9.8|
2,0,43|
2,1,40|
2,2,8.5|
2,3,34|
2,4,55|
3,0,29|
3,1,16|
3,2,86|
3,3,56|
3,4,81|
4,0,30|
4,1,17|
4,2,19|
4,3,41|
4,4,48|
];
constraint_x8_x6=[
0,0,17|
0,1,60|
0,2,75|
0,3,4.3|
0,4,89|
1,0,60|
1,1,75|
1,2,43|
1,3,83|
1,4,92|
2,0,73|
2,1,2|
2,2,30|
2,3,79|
2,4,17|
3,0,75|
3,1,92|
3,2,33|
3,3,21|
3,4,75|
4,0,74|
4,1,37|
4,2,58|
4,3,80|
4,4,36|
];
constraint_x9_x1=[
0,0,46|
0,1,95|
0,2,12|
0,3,25|
0,4,27|
1,0,96|
1,1,18|
1,2,72|
1,3,32|
1,4,20|
2,0,55|
2,1,39|
2,2,7.2|
2,3,31|
2,4,3.3|
3,0,36|
3,1,5.7|
3,2,29|
3,3,67|
3,4,72|
4,0,50|
4,1,68|
4,2,12|
4,3,48|
4,4,15|
];
constraint_x9_x3=[
0,0,1e+02|
0,1,99|
0,2,30|
0,3,81|
0,4,52|
1,0,52|
1,1,70|
1,2,26|
1,3,19|
1,4,91|
2,0,80|
2,1,30|
2,2,33|
2,3,65|
2,4,33|
3,0,57|
3,1,82|
3,2,39|
3,3,43|
3,4,19|
4,0,94|
4,1,71|
4,2,46|
4,3,23|
4,4,67|
];
constraint_x9_x5=[
0,0,32|
0,1,65|
0,2,76|
0,3,65|
0,4,78|
1,0,21|
1,1,83|
1,2,91|
1,3,13|
1,4,99|
2,0,49|
2,1,33|
2,2,16|
2,3,27|
2,4,85|
3,0,47|
3,1,96|
3,2,23|
3,3,26|
3,4,39|
4,0,49|
4,1,43|
4,2,39|
4,3,90|
4,4,36|
];
constraint_x9_x6=[
0,0,46|
0,1,72|
0,2,1|
0,3,30|
0,4,74|
1,0,74|
1,1,51|
1,2,26|
1,3,50|
1,4,68|
2,0,48|
2,1,0.52|
2,2,23|
2,3,90|
2,4,71|
3,0,20|
3,1,4.1|
3,2,89|
3,3,87|
3,4,42|
4,0,50|
4,1,9.4|
4,2,67|
4,3,97|
4,4,68|
];
constraint_x10_x1=[
0,0,29|
0,1,17|
0,2,87|
0,3,64|
0,4,80|
1,0,23|
1,1,10|
1,2,73|
1,3,56|
1,4,99|
2,0,76|
2,1,8.4|
2,2,27|
2,3,47|
2,4,91|
3,0,78|
3,1,3.6|
3,2,50|
3,3,96|
3,4,68|
4,0,17|
4,1,14|
4,2,34|
4,3,13|
4,4,96|
];
constraint_x10_x2=[
0,0,37|
0,1,33|
0,2,25|
0,3,39|
0,4,86|
1,0,36|
1,1,99|
1,2,19|
1,3,9.4|
1,4,39|
2,0,35|
2,1,59|
2,2,47|
2,3,36|
2,4,44|
3,0,80|
3,1,52|
3,2,92|
3,3,24|
3,4,46|
4,0,48|
4,1,12|
4,2,69|
4,3,86|
4,4,19|
];
constraint_x10_x3=[
0,0,28|
0,1,68|
0,2,87|
0,3,14|
0,4,44|
1,0,54|
1,1,31|
1,2,75|
1,3,52|
1,4,30|
2,0,11|
2,1,7.8|
2,2,30|
2,3,49|
2,4,10|
3,0,87|
3,1,78|
3,2,27|
3,3,35|
3,4,98|
4,0,72|
4,1,35|
4,2,65|
4,3,70|
4,4,55|
];
constraint_x10_x7=[
0,0,99|
0,1,72|
0,2,2.5|
0,3,61|
0,4,28|
1,0,20|
1,1,53|
1,2,12|
1,3,13|
1,4,19|
2,0,75|
2,1,86|
2,2,19|
2,3,20|
2,4,74|
3,0,28|
3,1,27|
3,2,2.6|
3,3,91|
3,4,86|
4,0,64|
4,1,73|
4,2,37|
4,3,70|
4,4,23|
];
constraint_x10_x8=[
0,0,44|
0,1,86|
0,2,72|
0,3,62|
0,4,44|
1,0,84|
1,1,68|
1,2,80|
1,3,20|
1,4,44|
2,0,54|
2,1,21|
2,2,85|
2,3,29|
2,4,89|
3,0,67|
3,1,79|
3,2,39|
3,3,98|
3,4,76|
4,0,49|
4,1,66|
4,2,94|
4,3,30|
4,4,63|
];
constraint_x1_y1=[
0,0,40|
0,1,77|
0,2,37|
0,3,3.4|
0,4,67|
1,0,90|
1,1,2.1|
1,2,35|
1,3,12|
1,4,33|
2,0,73|
2,1,52|
2,2,2.6|
2,3,29|
2,4,14|
3,0,27|
3,1,27|
3,2,2.8|
3,3,23|
3,4,20|
4,0,47|
4,1,2.1|
4,2,70|
4,3,76|
4,4,49|
];
constraint_x2_y2=[
0,0,24|
0,1,72|
0,2,97|
0,3,68|
0,4,57|
1,0,46|
1,1,11|
1,2,7.2|
1,3,31|
1,4,5.1|
2,0,18|
2,1,28|
2,2,85|
2,3,37|
2,4,46|
3,0,47|
3,1,0.94|
3,2,16|
3,3,98|
3,4,46|
4,0,81|
4,1,91|
4,2,6.3|
4,3,20|
4,4,26|
];
constraint_x3_y3=[
0,0,75|
0,1,36|
0,2,84|
0,3,75|
0,4,40|
1,0,70|
1,1,8.8|
1,2,12|
1,3,75|
1,4,7.3|
2,0,85|
2,1,40|
2,2,19|
2,3,23|
2,4,56|
3,0,88|
3,1,70|
3,2,67|
3,3,62|
3,4,71|
4,0,71|
4,1,47|
4,2,78|
4,3,52|
4,4,50|
];
constraint_x4_y4=[
0,0,68|
0,1,50|
0,2,78|
0,3,11|
0,4,34|
1,0,12|
1,1,18|
1,2,48|
1,3,48|
1,4,80|
2,0,7.4|
2,1,80|
2,2,90|
2,3,60|
2,4,33|
3,0,91|
3,1,3.7|
3,2,42|
3,3,35|
3,4,72|
4,0,14|
4,1,64|
4,2,16|
4,3,10|
4,4,94|
];
constraint_x5_y5=[
0,0,20|
0,1,99|
0,2,99|
0,3,16|
0,4,34|
1,0,65|
1,1,30|
1,2,1.1|
1,3,1.1|
1,4,36|
2,0,13|
2,1,6.2|
2,2,37|
2,3,37|
2,4,64|
3,0,38|
3,1,20|
3,2,50|
3,3,64|
3,4,9.8|
4,0,77|
4,1,1e+02|
4,2,0.16|
4,3,88|
4,4,13|
];
constraint_x6_y6=[
0,0,12|
0,1,48|
0,2,1.7|
0,3,94|
0,4,91|
1,0,18|
1,1,28|
1,2,93|
1,3,30|
1,4,79|
2,0,63|
2,1,24|
2,2,25|
2,3,74|
2,4,75|
3,0,7.7|
3,1,53|
3,2,6.5|
3,3,19|
3,4,79|
4,0,20|
4,1,10|
4,2,42|
4,3,5.3|
4,4,66|
];
constraint_x7_y7=[
0,0,2.8|
0,1,56|
0,2,99|
0,3,39|
0,4,25|
1,0,96|
1,1,43|
1,2,43|
1,3,89|
1,4,48|
2,0,23|
2,1,36|
2,2,34|
2,3,52|
2,4,22|
3,0,41|
3,1,16|
3,2,9.7|
3,3,40|
3,4,60|
4,0,49|
4,1,73|
4,2,82|
4,3,57|
4,4,60|
];
constraint_x8_y8=[
0,0,77|
0,1,63|
0,2,14|
0,3,7.2|
0,4,19|
1,0,51|
1,1,25|
1,2,88|
1,3,60|
1,4,15|
2,0,24|
2,1,65|
2,2,73|
2,3,49|
2,4,63|
3,0,7.5|
3,1,96|
3,2,60|
3,3,41|
3,4,13|
4,0,11|
4,1,35|
4,2,37|
4,3,81|
4,4,56|
];
constraint_x9_y9=[
0,0,88|
0,1,6.2|
0,2,54|
0,3,95|
0,4,51|
1,0,80|
1,1,42|
1,2,35|
1,3,43|
1,4,83|
2,0,16|
2,1,70|
2,2,88|
2,3,96|
2,4,2.6|
3,0,54|
3,1,19|
3,2,4.7|
3,3,37|
3,4,64|
4,0,52|
4,1,39|
4,2,89|
4,3,64|
4,4,79|
];
constraint_x10_y10=[
0,0,93|
0,1,28|
0,2,16|
0,3,61|
0,4,6.1|
1,0,13|
1,1,98|
1,2,8.9|
1,3,51|
1,4,39|
2,0,69|
2,1,48|
2,2,5.3|
2,3,1.2|
2,4,97|
3,0,35|
3,1,95|
3,2,41|
3,3,26|
3,4,1.3|
4,0,84|
4,1,39|
4,2,60|
4,3,25|
4,4,66|
];
initial_distribution_y1=[0.13,0.037,0.3,0.21,0.33];
initial_distribution_y2=[0.33,0.38,0.19,0.035,0.058];
initial_distribution_y3=[0.098,0.38,0.21,0.14,0.17];
initial_distribution_y4=[0.28,0.11,0.25,0.1,0.25];
initial_distribution_y5=[0.27,0.16,0.22,0.13,0.21];
initial_distribution_y6=[0.055,0.24,0.064,0.33,0.31];
initial_distribution_y7=[0.2,0.2,0.16,0.23,0.21];
initial_distribution_y8=[0.24,0.28,0.21,0.055,0.2];
initial_distribution_y9=[0.051,0.33,0.43,0.1,0.092];
initial_distribution_y10=[0.031,0.11,0.27,0.3,0.29];
transition_y1=[
0.089,0.47,0.093,0.31,0.035|
0.24,0.24,0.26,0.044,0.21|
0.014,0.14,0.33,0.27,0.24|
0.13,0.16,0.08,0.35,0.29|
0.19,0.19,0.33,0.16,0.14|
];
transition_y2=[
0.24,0.15,0.23,0.17,0.22|
0.098,0.12,0.47,0.09,0.22|
0.25,0.22,0.27,0.14,0.12|
0.23,0.22,0.18,0.11,0.26|
0.27,0.25,0.21,0.25,0.025|
];
transition_y3=[
0.051,0.35,0.29,0.22,0.094|
0.55,0.18,0.056,0.12,0.091|
0.19,0.16,0.35,0.26,0.051|
0.1,0.1,0.18,0.27,0.35|
0.016,0.25,0.18,0.28,0.27|
];
transition_y4=[
0.043,0.23,0.21,0.22,0.3|
0.11,0.35,0.019,0.44,0.074|
0.35,0.18,0.053,0.14,0.28|
0.13,0.34,0.083,0.27,0.17|
0.027,0.23,0.21,0.27,0.26|
];
transition_y5=[
0.072,0.044,0.16,0.65,0.081|
0.29,0.34,0.0097,0.03,0.34|
0.32,0.25,0.19,0.073,0.17|
0.086,0.29,0.12,0.11,0.39|
0.29,0.35,0.11,0.15,0.1|
];
transition_y6=[
0.13,0.28,0.35,0.0084,0.24|
0.28,0.24,0.065,0.37,0.057|
0.28,0.092,0.21,0.28,0.13|
0.31,0.095,0.29,0.086,0.22|
0.28,0.049,0.089,0.29,0.29|
];
transition_y7=[
0.18,0.27,0.26,0.17,0.12|
0.19,0.015,0.53,0.042,0.22|
0.26,0.32,0.1,0.18,0.14|
0.088,0.06,0.12,0.37,0.36|
0.21,0.29,0.12,0.22,0.17|
];
transition_y8=[
0.017,0.14,0.45,0.013,0.38|
0.17,0.36,0.0088,0.043,0.42|
0.23,0.11,0.26,0.27,0.14|
0.3,0.05,0.16,0.23,0.26|
0.17,0.18,0.24,0.18,0.23|
];
transition_y9=[
0.16,0.094,0.22,0.39,0.13|
0.36,0.41,0.087,0.072,0.072|
0.26,0.23,0.24,0.025,0.24|
0.46,0.062,0.24,0.14,0.098|
0.37,0.39,0.019,0.054,0.16|
];
transition_y10=[
0.22,0.094,0.21,0.35,0.13|
0.18,0.28,0.085,0.42,0.041|
0.32,0.39,0.078,0.18,0.027|
0.12,0.29,0.13,0.3,0.15|
0.3,0.21,0.018,0.34,0.13|
];
